1760.0,1869.0,1969.0,2078.0,2187.0,2296.0,2396.0,2496.0,2599.0,2599.0,2708.0,1869.0,1978.0,2679.0,2187.0,2831.0,2390.0,2988.0,2490.0,3120.0,2693.0,1869.0,1978.0,2078.0,2187.0,2296.0,2405.0,2505.0,2614.0,3235.0,2814.0,1860.0,1860.0,1960.0,2063.0,2693.0,2263.0,2907.0,2472.0,2575.0,2681.0,1869.0,1978.0,2087.0,2196.0,2196.0,2296.0,2405.0,2508.0,2508.0,2608.0,1860.0,1969.0,2797.0,2178.0,2272.0,2372.0,2481.0,2572.0,2672.0,3302.0,1860.0,1960.0,2069.0,2060.0,2160.0,2269.0,2369.0,2463.0,2572.0,2572.0